TCS_Benchmarks/redos_fix/snort3_output_distinct_2652_2651_0_0.smt2
(set-logic QF_S)
(declare-const x String)
(assert (str.in.re x (re.inter  (re.++ (re.* (re.range "\u{20}" "\u{7e}") )  (re.++  (re.union (re.range "\u{30}" "\u{39}") (re.range "\u{41}" "\u{5a}")) (re.++  (re.union (re.range "\u{30}" "\u{39}") (re.range "\u{41}" "\u{5a}")) (re.++  (re.union (re.range "\u{30}" "\u{39}") (re.range "\u{41}" "\u{5a}")) (re.++  (re.union (re.range "\u{30}" "\u{39}") (re.range "\u{41}" "\u{5a}")) (re.++  (re.union (re.range "\u{30}" "\u{39}") (re.range "\u{41}" "\u{5a}")) (re.++  (re.union (re.range "\u{30}" "\u{39}") (re.range "\u{41}" "\u{5a}")) (re.++  (re.union (re.range "\u{30}" "\u{39}") (re.range "\u{41}" "\u{5a}"))  (re.union (re.range "\u{30}" "\u{39}") (re.range "\u{41}" "\u{5a}"))))))))))  (re.++ (re.* (re.range "\u{20}" "\u{7e}") ) (re.++  (str.to.re "\u{2e}")  (re.++  (re.union (re.range "\u{30}" "\u{39}") (re.range "\u{41}" "\u{5a}")) (re.++  (re.union (re.range "\u{30}" "\u{39}") (re.range "\u{41}" "\u{5a}")) (re.++  (re.union (re.range "\u{30}" "\u{39}") (re.range "\u{41}" "\u{5a}")) (re.++  (re.union (re.range "\u{30}" "\u{39}") (re.range "\u{41}" "\u{5a}")) (re.++  (re.union (re.range "\u{30}" "\u{39}") (re.range "\u{41}" "\u{5a}")) (re.++  (re.union (re.range "\u{30}" "\u{39}") (re.range "\u{41}" "\u{5a}")) (re.++  (re.union (re.range "\u{30}" "\u{39}") (re.range "\u{41}" "\u{5a}"))  (re.union (re.range "\u{30}" "\u{39}") (re.range "\u{41}" "\u{5a}"))))))))))) )))
(check-sat)
(get-model)