TCS_Benchmarks/redos_fix/snort3_output_distinct_2652_2651_0_0.txt
([ -~]*)([\dA-Z]{8})
([ -~]*)(\.)([\dA-Z]{8})